%%%%%%%%%%%%%%%%%%%%%%%%%%%%%%%%%%%%%%%%%%%%%%%%%%%%%%%%%%%%%%%%%%%%%%%%%
%FILE DATA:	Soccer Computational Problem for MiniZinc Models
%AUTHORS:	Robinson Duque, Alejandro Arbelaez, Juan Francisco Díaz
%CONTACT:  	robinson.duque@correounivalle.edu.co 
%LAST UPDATE:	May, 2018 
%ROUND ROBIN:2
%TEAMS:20
%PRESENT FIXTURE:21
%FIXTURES TO PLAY:17
%GAMES TO PLAY:170
%%%%%%%%%%%%%%%%%%%%%%%%%%%%%%%%%%%%%%%%%%%%%%%%%%%%%%%%%%%%%%%%%%%%%%%%%
%Number of teams:
n=20;

%For the purpose of our models, we offer two representations of the games to play, namely fixtures and games to play:

%Fixtures to play:
%fixtures=[|0,1,0,0,1,1,1,1,1,1,1,1,1,1,1,1,1,1,1,1
%|1,0,0,1,1,1,1,1,1,1,0,1,1,1,1,1,1,1,1,1
%|0,0,0,1,1,1,1,1,1,1,1,1,1,1,1,1,1,1,1,1
%|0,1,1,0,0,1,1,1,1,1,1,1,1,1,1,1,1,1,1,1
%|1,1,1,0,0,1,1,1,0,1,1,1,1,1,1,1,1,1,1,1
%|1,1,1,1,1,0,0,1,0,1,1,1,1,1,1,1,1,1,1,1
%|1,1,1,1,1,0,0,1,1,1,0,1,1,1,1,1,1,1,1,1
%|1,1,1,1,1,1,1,0,1,1,1,1,0,1,0,1,1,1,1,1
%|1,1,1,1,0,0,1,1,0,1,1,1,1,1,1,1,1,1,1,1
%|1,1,1,1,1,1,1,1,1,0,1,1,1,1,1,1,0,1,1,0
%|1,0,1,1,1,1,0,1,1,1,0,1,1,1,1,1,1,1,1,1
%|1,1,1,1,1,1,1,1,1,1,1,0,1,0,0,1,1,1,1,1
%|1,1,1,1,1,1,1,0,1,1,1,1,0,0,1,1,1,1,1,1
%|1,1,1,1,1,1,1,1,1,1,1,0,0,0,1,1,1,1,1,1
%|1,1,1,1,1,1,1,0,1,1,1,0,1,1,0,1,1,1,1,1
%|1,1,1,1,1,1,1,1,1,1,1,1,1,1,1,0,0,1,0,1
%|1,1,1,1,1,1,1,1,1,0,1,1,1,1,1,0,0,1,1,1
%|1,1,1,1,1,1,1,1,1,1,1,1,1,1,1,1,1,0,0,0
%|1,1,1,1,1,1,1,1,1,1,1,1,1,1,1,0,1,0,0,1
%|1,1,1,1,1,1,1,1,1,0,1,1,1,1,1,1,1,0,1,0|];

%Played Fixtures:
%PlayedFixtures=[|0,1,2,2,1,1,1,1,1,1,1,1,1,1,1,1,1,1,1,1
%|1,0,2,1,1,1,1,1,1,1,2,1,1,1,1,1,1,1,1,1
%|2,2,0,1,1,1,1,1,1,1,1,1,1,1,1,1,1,1,1,1
%|2,1,1,0,2,1,1,1,1,1,1,1,1,1,1,1,1,1,1,1
%|1,1,1,2,0,1,1,1,2,1,1,1,1,1,1,1,1,1,1,1
%|1,1,1,1,1,0,2,1,2,1,1,1,1,1,1,1,1,1,1,1
%|1,1,1,1,1,2,0,1,1,1,2,1,1,1,1,1,1,1,1,1
%|1,1,1,1,1,1,1,0,1,1,1,1,2,1,2,1,1,1,1,1
%|1,1,1,1,2,2,1,1,0,1,1,1,1,1,1,1,1,1,1,1
%|1,1,1,1,1,1,1,1,1,0,1,1,1,1,1,1,2,1,1,2
%|1,2,1,1,1,1,2,1,1,1,0,1,1,1,1,1,1,1,1,1
%|1,1,1,1,1,1,1,1,1,1,1,0,1,2,2,1,1,1,1,1
%|1,1,1,1,1,1,1,2,1,1,1,1,0,2,1,1,1,1,1,1
%|1,1,1,1,1,1,1,1,1,1,1,2,2,0,1,1,1,1,1,1
%|1,1,1,1,1,1,1,2,1,1,1,2,1,1,0,1,1,1,1,1
%|1,1,1,1,1,1,1,1,1,1,1,1,1,1,1,0,2,1,2,1
%|1,1,1,1,1,1,1,1,1,2,1,1,1,1,1,2,0,1,1,1
%|1,1,1,1,1,1,1,1,1,1,1,1,1,1,1,1,1,0,2,2
%|1,1,1,1,1,1,1,1,1,1,1,1,1,1,1,2,1,2,0,1
%|1,1,1,1,1,1,1,1,1,2,1,1,1,1,1,1,1,2,1,0|];

%Games to play:
games=[|2,1|4,2|4,3|5,1|5,2|5,3|6,1|6,2|6,3|6,4|6,5|7,1|7,2|7,3|7,4|7,5|8,1|8,2|8,3|8,4|8,5|8,6|8,7|9,1|9,2|9,3|9,4|9,7|9,8|10,1|10,2|10,3|10,4|10,5|10,6|10,7|10,8|10,9|11,1|11,3|11,4|11,5|11,6|11,8|11,9|11,10|12,1|12,2|12,3|12,4|12,5|12,6|12,7|12,8|12,9|12,10|12,11|13,1|13,2|13,3|13,4|13,5|13,6|13,7|13,9|13,10|13,11|13,12|14,1|14,2|14,3|14,4|14,5|14,6|14,7|14,8|14,9|14,10|14,11|15,1|15,2|15,3|15,4|15,5|15,6|15,7|15,9|15,10|15,11|15,13|15,14|16,1|16,2|16,3|16,4|16,5|16,6|16,7|16,8|16,9|16,10|16,11|16,12|16,13|16,14|16,15|17,1|17,2|17,3|17,4|17,5|17,6|17,7|17,8|17,9|17,11|17,12|17,13|17,14|17,15|18,1|18,2|18,3|18,4|18,5|18,6|18,7|18,8|18,9|18,10|18,11|18,12|18,13|18,14|18,15|18,16|18,17|19,1|19,2|19,3|19,4|19,5|19,6|19,7|19,8|19,9|19,10|19,11|19,12|19,13|19,14|19,15|19,17|20,1|20,2|20,3|20,4|20,5|20,6|20,7|20,8|20,9|20,11|20,12|20,13|20,14|20,15|20,16|20,17|20,19|];

%Played Games:
%PlayedGames=[|2,1|3,1|3,1|3,2|3,2|4,1|4,1|4,2|4,3|5,1|5,2|5,3|5,4|5,4|6,1|6,2|6,3|6,4|6,5|7,1|7,2|7,3|7,4|7,5|7,6|7,6|8,1|8,2|8,3|8,4|8,5|8,6|8,7|9,1|9,2|9,3|9,4|9,5|9,5|9,6|9,6|9,7|9,8|10,1|10,2|10,3|10,4|10,5|10,6|10,7|10,8|10,9|11,1|11,2|11,2|11,3|11,4|11,5|11,6|11,7|11,7|11,8|11,9|11,10|12,1|12,2|12,3|12,4|12,5|12,6|12,7|12,8|12,9|12,10|12,11|13,1|13,2|13,3|13,4|13,5|13,6|13,7|13,8|13,8|13,9|13,10|13,11|13,12|14,1|14,2|14,3|14,4|14,5|14,6|14,7|14,8|14,9|14,10|14,11|14,12|14,12|14,13|14,13|15,1|15,2|15,3|15,4|15,5|15,6|15,7|15,8|15,8|15,9|15,10|15,11|15,12|15,12|15,13|15,14|16,1|16,2|16,3|16,4|16,5|16,6|16,7|16,8|16,9|16,10|16,11|16,12|16,13|16,14|16,15|17,1|17,2|17,3|17,4|17,5|17,6|17,7|17,8|17,9|17,10|17,10|17,11|17,12|17,13|17,14|17,15|17,16|17,16|18,1|18,2|18,3|18,4|18,5|18,6|18,7|18,8|18,9|18,10|18,11|18,12|18,13|18,14|18,15|18,16|18,17|19,1|19,2|19,3|19,4|19,5|19,6|19,7|19,8|19,9|19,10|19,11|19,12|19,13|19,14|19,15|19,16|19,16|19,17|19,18|19,18|20,1|20,2|20,3|20,4|20,5|20,6|20,7|20,8|20,9|20,10|20,10|20,11|20,12|20,13|20,14|20,15|20,16|20,17|20,18|20,18|20,19|];

%Played Games - Win Results:
%% 0  0  0  0  0  1  0  0  0  1  0  0  0  0  0  0  0  0  0  0
%% 0  0  0  0  1  0  1  0  0  1  0  0  1  1  1  0  1  0  0  0
%% 0  0  0  0  0  1  0  0  1  0  0  0  0  0  0  0  1  0  0  0
%% 0  0  0  0  0  1  0  0  0  0  0  0  0  0  1  0  0  0  0  0
%% 1  0  0  0  0  0  1  1  0  0  1  0  0  0  0  0  1  0  0  0
%% 0  0  0  0  0  0  0  0  0  0  0  0  0  0  0  0  0  0  0  0
%% 0  0  0  0  0  0  0  0  0  0  0  0  0  0  0  0  0  0  0  0
%% 1  0  1  1  0  1  1  0  0  1  1  0  0  1  0  0  0  0  0  0
%% 0  0  0  0  0  0  0  0  0  0  0  0  0  0  0  0  0  0  0  0
%% 0  0  0  1  0  0  0  0  1  0  0  0  0  0  0  0  0  0  0  0
%% 0  0  1  0  0  0  0  0  1  0  0  0  0  0  0  0  0  0  0  0
%% 1  1  0  1  1  1  0  1  0  0  0  0  1  0  0  0  0  0  0  0
%% 1  0  0  0  0  0  0  0  0  1  1  0  0  0  1  0  0  0  0  0
%% 0  0  0  1  0  0  1  0  0  0  1  0  0  0  1  0  1  0  0  0
%% 0  0  0  0  0  0  1  0  1  0  0  0  0  0  0  0  0  0  0  0
%% 1  1  0  0  1  0  0  1  0  1  1  1  1  0  0  0  0  0  2  0
%% 0  0  0  0  0  0  0  0  0  0  0  0  0  0  0  0  0  0  0  0
%% 1  0  1  1  0  0  0  0  1  0  0  1  0  1  1  1  1  0  0  0
%% 0  1  1  0  1  1  1  0  0  1  1  1  1  1  0  0  0  0  0  0
%% 0  1  1  0  1  1  0  1  0  0  0  1  1  1  1  1  1  2  0  0
%Played Games - Tie Results:
%% 0  1  2  2  0  0  1  0  1  0  1  0  0  1  1  0  1  0  1  1
%% 1  0  2  1  0  1  0  1  1  0  2  0  0  0  0  0  0  1  0  0
%% 2  2  0  1  1  0  1  0  0  1  0  1  1  1  1  1  0  0  0  0
%% 2  1  1  0  2  0  1  0  1  0  1  0  1  0  0  1  1  0  1  1
%% 0  0  1  2  0  1  0  0  2  1  0  0  1  1  1  0  0  1  0  0
%% 0  1  0  0  1  0  2  0  2  1  1  0  1  1  1  1  1  1  0  0
%% 1  0  1  1  0  2  0  0  1  1  2  1  1  0  0  1  1  1  0  1
%% 0  1  0  0  0  0  0  0  1  0  0  0  2  0  2  0  1  1  1  0
%% 1  1  0  1  2  2  1  1  0  0  0  1  1  1  0  1  1  0  1  1
%% 0  0  1  0  1  1  1  0  0  0  1  1  0  1  1  0  2  1  0  2
%% 1  2  0  1  0  1  2  0  0  1  0  1  0  0  1  0  1  1  0  1
%% 0  0  1  0  0  0  1  0  1  1  1  0  0  2  2  0  1  0  0  0
%% 0  0  1  1  1  1  1  2  1  0  0  0  0  2  0  0  1  1  0  0
%% 1  0  1  0  1  1  0  0  1  1  0  2  2  0  0  1  0  0  0  0
%% 1  0  1  0  1  1  0  2  0  1  1  2  0  0  0  1  1  0  1  0
%% 0  0  1  1  0  1  1  0  1  0  0  0  0  1  1  0  2  0  0  0
%% 1  0  0  1  0  1  1  1  1  2  1  1  1  0  1  2  0  0  1  0
%% 0  1  0  0  1  1  1  1  0  1  1  0  1  0  0  0  0  0  2  0
%% 1  0  0  1  0  0  0  1  1  0  0  0  0  0  1  0  1  2  0  1
%% 1  0  0  1  0  0  1  0  1  2  1  0  0  0  0  0  0  0  1  0
%Played Games - Lose Results:
%% 0  0  0  0  1  0  0  1  0  0  0  1  1  0  0  1  0  1  0  0
%% 0  0  0  0  0  0  0  0  0  0  0  1  0  0  0  1  0  0  1  1
%% 0  0  0  0  0  0  0  1  0  0  1  0  0  0  0  0  0  1  1  1
%% 0  0  0  0  0  0  0  1  0  1  0  1  0  1  0  0  0  1  0  0
%% 0  1  0  0  0  0  0  0  0  0  0  1  0  0  0  1  0  0  1  1
%% 1  0  1  1  0  0  0  1  0  0  0  1  0  0  0  0  0  0  1  1
%% 0  1  0  0  1  0  0  1  0  0  0  0  0  1  1  0  0  0  1  0
%% 0  0  0  0  1  0  0  0  0  0  0  1  0  0  0  1  0  0  0  1
%% 0  0  1  0  0  0  0  0  0  1  1  0  0  0  1  0  0  1  0  0
%% 1  1  0  0  0  0  0  1  0  0  0  0  1  0  0  1  0  0  1  0
%% 0  0  0  0  1  0  0  1  0  0  0  0  1  1  0  1  0  0  1  0
%% 0  0  0  0  0  0  0  0  0  0  0  0  0  0  0  1  0  1  1  1
%% 0  1  0  0  0  0  0  0  0  0  0  1  0  0  0  1  0  0  1  1
%% 0  1  0  0  0  0  0  1  0  0  0  0  0  0  0  0  0  1  1  1
%% 0  1  0  1  0  0  0  0  0  0  0  0  1  1  0  0  0  1  0  1
%% 0  0  0  0  0  0  0  0  0  0  0  0  0  0  0  0  0  1  0  1
%% 0  1  1  0  1  0  0  0  0  0  0  0  0  1  0  0  0  1  0  1
%% 0  0  0  0  0  0  0  0  0  0  0  0  0  0  0  0  0  0  0  2
%% 0  0  0  0  0  0  0  0  0  0  0  0  0  0  0  2  0  0  0  0
%% 0  0  0  0  0  0  0  0  0  0  0  0  0  0  0  0  0  0  0  0

%%Initial points:
iPoints=[19, 31, 22, 20, 26, 14, 15, 33, 16, 19, 19, 31, 24, 26, 19, 39, 15, 37, 39, 47];

%%Initial positions:
%iPositions=[16, 7, 11, 12, 9, 20, 19, 5, 17, 15, 14, 6, 10, 8, 13, 3, 18, 4, 2, 1];

%%Position Constraints:
%numberPositionConstraints=1;

%%Total Fixtures:
%totalFixtures=38;

%%Fixtures to Play:
%fixturesToPlay=17;

%%Position Constraints Built With
%wantedPoints=[1, 0, 3, 1, 3, 3, 1, 3, 1, 1, 3, 0, 0, 1, 3, 3, 0, 1, 3, 1, 1, 1, 3, 3, 1, 3, 3, 1, 3, 0, 1, 0, 0, 1, 3, 1, 3, 0, 1, 3, 1, 0, 3, 3, 3, 0, 0, 3, 1, 0, 0, 1, 1, 1, 3, 3, 3, 3, 1, 1, 1, 0, 3, 1, 0, 0, 3, 0, 1, 0, 1, 0, 1, 3, 3, 3, 1, 3, 1, 3, 0, 0, 0, 3, 1, 1, 3, 3, 1, 0, 3, 1, 1, 1, 0, 0, 0, 0, 1, 1, 1, 0, 1, 0, 1, 1, 0, 0, 0, 3, 3, 1, 0, 3, 1, 3, 1, 0, 3, 1, 0, 3, 3, 1, 0, 0, 3, 0, 0, 3, 3, 0, 1, 3, 1, 0, 3, 1, 1, 0, 1, 3, 1, 0, 1, 0, 1, 3, 0, 1, 0, 1, 3, 0, 1, 3, 3, 1, 1, 0, 0, 3, 1, 1, 0, 1, 3, 3, 3, 0];

%%Probabilities:
probabilities=[|66,29,0,5,|83,5,0,12,|79,5,0,16,|53,38,0,9,|2,67,0,31,|88,4,0,8,|39,26,0,35,|16,9,0,75,|15,32,0,53,|5,59,0,36,|13,12,0,75,|90,2,0,8,|8,5,0,87,|28,64,0,8,|12,82,0,6,|97,3,0,0,|10,73,0,17,|22,39,0,39,|39,5,0,56,|52,6,0,42,|68,16,0,16,|50,22,0,28,|69,12,0,19,|2,52,0,46,|91,1,0,8,|86,7,0,7,|16,60,0,24,|95,0,0,5,|59,10,0,31,|64,3,0,33,|9,64,0,27,|68,13,0,19,|29,5,0,66,|26,34,0,40,|79,15,0,6,|26,5,0,69,|38,38,0,24,|87,5,0,8,|93,7,0,0,|35,30,0,35,|19,57,0,24,|54,12,0,34,|95,3,0,2,|94,0,0,6,|81,19,0,0,|46,14,0,40,|77,5,0,18,|27,55,0,18,|8,70,0,22,|82,12,0,6,|41,50,0,9,|69,28,0,3,|74,26,0,0,|69,9,0,22,|99,0,0,1,|63,18,0,19,|42,12,0,46,|47,2,0,51,|74,8,0,18,|55,10,0,35,|11,19,0,70,|29,38,0,33,|41,14,0,45,|7,69,0,24,|80,14,0,6,|71,26,0,3,|92,8,0,0,|90,5,0,5,|63,7,0,30,|42,44,0,14,|67,12,0,21,|38,55,0,7,|52,36,0,12,|67,2,0,31,|0,98,0,2,|29,34,0,37,|75,10,0,15,|60,38,0,2,|67,21,0,12,|23,28,0,49,|11,45,0,44,|58,24,0,18,|13,51,0,36,|59,30,0,11,|87,9,0,4,|81,8,0,11,|24,51,0,25,|28,71,0,1,|8,76,0,16,|82,10,0,8,|9,1,0,90,|40,5,0,55,|5,35,0,60,|86,12,0,2,|37,36,0,27,|96,3,0,1,|6,0,0,94,|12,8,0,80,|95,5,0,0,|24,23,0,53,|95,3,0,2,|19,8,0,73,|49,31,0,20,|53,29,0,18,|61,9,0,30,|10,68,0,22,|20,72,0,8,|44,18,0,38,|58,42,0,0,|19,27,0,54,|89,6,0,5,|9,47,0,44,|34,61,0,5,|41,37,0,22,|56,29,0,15,|36,0,0,64,|98,0,0,2,|19,68,0,13,|81,19,0,0,|56,1,0,43,|28,32,0,40,|89,1,0,10,|8,88,0,4,|3,94,0,3,|49,0,0,51,|18,0,0,82,|13,18,0,69,|17,57,0,26,|98,1,0,1,|58,31,0,11,|65,3,0,32,|76,17,0,7,|2,60,0,38,|97,3,0,0,|37,0,0,63,|69,21,0,10,|99,0,0,1,|87,1,0,12,|84,1,0,15,|63,24,0,13,|21,40,0,39,|88,12,0,0,|24,51,0,25,|80,5,0,15,|24,27,0,49,|92,6,0,2,|32,50,0,18,|90,10,0,0,|54,20,0,26,|24,41,0,35,|37,21,0,42,|86,8,0,6,|78,21,0,1,|65,14,0,21,|10,64,0,26,|66,10,0,24,|88,6,0,6,|49,5,0,46,|1,80,0,19,|0,72,0,28,|90,6,0,4,|31,48,0,21,|68,7,0,25,|6,5,0,89,|29,17,0,54,|10,62,0,28,|6,84,0,10,|4,31,0,65,|62,8,0,30,|94,0,0,6,|];


%POSITION CONSTRAINTS
%%[|teamID, operator, position|...]
%%operators index:
%%%1 for =  operator
%%%2 for >  operator
%%%3 for >= operator
%%%4 for <  operator
%%%5 for <= operator

positionConstraints=[|9,1,12|];

%SCORE VECTOR CONSTRAINTS
%%[|teamID, operator, wantedPoints|...]
%%operators index:
%%%1 for =  operator
%%%2 for >  operator
%%%3 for >= operator
%%%4 for <  operator
%%%5 for <= operator

%scoreVectorConstraints=[|9,1,45|];

%Instance Features:
%features=T,FP,TF,C,C/T,C/TF,FP/TF,FP/T,FP*C/T,FP*T/C,(C/T)*(FP/TF),Distance,Distance/C,Distance/T,Distance/(C*T)
%values=20,17,38,1,0.05,0.02631578947368421,0.4473684210526316,0.85,0.85,340.0,0.02236842105263158,5,5.0,0.25,0.25



